c Generated from Nested-Unit Petri Net model NUPN1/0663.nupn
c (C) 2020 Pierre Bouvier and Hubert Garavel at INRIA Grenoble Rhône-Alpes
c Produced by the CONVECS research team (http://convecs.inria.fr)
c Licensed under CC-BY Creative Commons Attribution 4.0 International License
c (license terms available from http://creativecommons.org/licenses/by/4.0)
p cnf 54 270
1 0
4 5 0
7 8 9 0
10 11 12 0
13 14 15 0
16 17 18 0
19 20 21 0
22 23 24 0
25 26 27 0
28 29 30 0
31 32 33 0
34 35 36 0
37 38 39 0
40 41 42 0
43 44 45 0
46 47 48 0
49 50 51 0
52 53 54 0
-31 -46 0
-32 -47 0
-33 -48 0
-13 -25 0
-14 -26 0
-15 -27 0
-7 -43 0
-8 -44 0
-9 -45 0
-28 -49 0
-29 -50 0
-30 -51 0
-10 -22 0
-11 -23 0
-12 -24 0
-19 -34 0
-20 -35 0
-21 -36 0
-4 -22 0
-5 -23 0
-6 -24 0
-4 -52 0
-5 -53 0
-6 -54 0
-10 -52 0
-11 -53 0
-12 -54 0
-7 -31 0
-8 -32 0
-9 -33 0
-13 -37 0
-14 -38 0
-15 -39 0
-1 -43 0
-2 -44 0
-3 -45 0
-28 -43 0
-29 -44 0
-30 -45 0
-1 -49 0
-2 -50 0
-3 -51 0
-10 -34 0
-11 -35 0
-12 -36 0
-19 -46 0
-20 -47 0
-21 -48 0
-4 -34 0
-5 -35 0
-6 -36 0
-31 -40 0
-32 -41 0
-33 -42 0
-19 -31 0
-20 -32 0
-21 -33 0
-16 -49 0
-17 -50 0
-18 -51 0
-7 -49 0
-8 -50 0
-9 -51 0
-13 -22 0
-14 -23 0
-15 -24 0
-7 -40 0
-8 -41 0
-9 -42 0
-16 -40 0
-17 -41 0
-18 -42 0
-10 -25 0
-11 -26 0
-12 -27 0
-19 -43 0
-20 -44 0
-21 -45 0
-4 -25 0
-5 -26 0
-6 -27 0
-13 -34 0
-14 -35 0
-15 -36 0
-16 -28 0
-17 -29 0
-18 -30 0
-1 -40 0
-2 -41 0
-3 -42 0
-28 -34 0
-29 -35 0
-30 -36 0
-1 -46 0
-2 -47 0
-3 -48 0
-13 -52 0
-14 -53 0
-15 -54 0
-10 -37 0
-11 -38 0
-12 -39 0
-28 -52 0
-29 -53 0
-30 -54 0
-4 -37 0
-5 -38 0
-6 -39 0
-25 -49 0
-26 -50 0
-27 -51 0
-1 -28 0
-2 -29 0
-3 -30 0
-7 -46 0
-8 -47 0
-9 -48 0
-31 -52 0
-32 -53 0
-33 -54 0
-16 -43 0
-17 -44 0
-18 -45 0
-31 -37 0
-32 -38 0
-33 -39 0
-4 -46 0
-5 -47 0
-6 -48 0
-19 -40 0
-20 -41 0
-21 -42 0
-16 -52 0
-17 -53 0
-18 -54 0
-13 -31 0
-14 -32 0
-15 -33 0
-7 -37 0
-8 -38 0
-9 -39 0
-1 -37 0
-2 -38 0
-3 -39 0
-28 -37 0
-29 -38 0
-30 -39 0
-13 -49 0
-14 -50 0
-15 -51 0
-10 -40 0
-11 -41 0
-12 -42 0
-19 -52 0
-20 -53 0
-21 -54 0
-10 -46 0
-11 -47 0
-12 -48 0
-7 -25 0
-8 -26 0
-9 -27 0
-13 -43 0
-14 -44 0
-15 -45 0
-22 -49 0
-23 -50 0
-24 -51 0
-16 -34 0
-17 -35 0
-18 -36 0
-4 -40 0
-5 -41 0
-6 -42 0
-31 -34 0
-32 -35 0
-33 -36 0
-10 -31 0
-11 -32 0
-12 -33 0
-19 -25 0
-20 -26 0
-21 -27 0
-4 -49 0
-5 -50 0
-6 -51 0
-31 -49 0
-32 -50 0
-33 -51 0
-7 -34 0
-8 -35 0
-9 -36 0
-1 -34 0
-2 -35 0
-3 -36 0
-22 -34 0
-23 -35 0
-24 -36 0
-13 -46 0
-14 -47 0
-15 -48 0
-28 -46 0
-29 -47 0
-30 -48 0
-10 -43 0
-11 -44 0
-12 -45 0
-19 -37 0
-20 -38 0
-21 -39 0
-4 -31 0
-5 -32 0
-6 -33 0
-10 -49 0
-11 -50 0
-12 -51 0
-7 -22 0
-8 -23 0
-9 -24 0
-13 -40 0
-14 -41 0
-15 -42 0
-1 -52 0
-2 -53 0
-3 -54 0
-28 -40 0
-29 -41 0
-30 -42 0
-7 -52 0
-8 -53 0
-9 -54 0
-16 -37 0
-17 -38 0
-18 -39 0
-19 -49 0
-20 -50 0
-21 -51 0
-4 -43 0
-5 -44 0
-6 -45 0
-31 -43 0
-32 -44 0
-33 -45 0
-19 -22 0
-20 -23 0
-21 -24 0
-16 -46 0
-17 -47 0
-18 -48 0
-25 -34 0
-26 -35 0
-27 -36 0
